WARNING: for repeatability, setting FPU to use double precision
============================[ Problem Statistics ]=============================
|                                                                             |
|  Number of variables:            50                                         |
|  Number of clauses:             218                                         |
|  Parse time:                   0.00 s                                       |
|                                                                             |
============================[ Search Statistics ]==============================
| Conflicts |          ORIGINAL         |          LEARNT          | Progress |
|           |    Vars  Clauses Literals |    Limit  Clauses Lit/Cl |          |
===============================================================================
===============================================================================
restarts              : 1
conflicts             : 79             (346491 /sec)
decisions             : 86             (0.00 % random) (377193 /sec)
propagations          : 1126           (4938596 /sec)
conflict literals     : 301            (14.97 % deleted)
Memory used           : 20.00 MB
CPU time              : 0.000228 s

UNSATISFIABLE
